100 61102

 297 432
939 380
819 916
984 252
260 845
970 485
432 515
348 309
51 574
53 326
693 40
458 272
227 7
614 979
253 966
578 396
360 729
824 346
821 672
478 806
351 947
363 401
806 784
329 266
210 991
85 26
467 604
483 660
841 689
222 121
381 939
809 182
824 623
385 223
460 308
304 547
933 418
119 161
934 171
684 419
532 758
33 898
476 85
408 394
162 101
657 17
972 662
563 603
715 164
69 234
418 24
117 835
613 975
939 136
662 232
77 869
355 927
551 420
404 51
834 40
815 574
612 393
374 29
256 584
106 12
355 788
414 307
676 41
659 589
71 398
396 974
182 545
157 276
828 710
42 272
420 905
169 375
880 550
558 51
232 427
503 833
732 806
959 225
221 227
887 818
935 931
917 96
636 451
630 338
404 871
753 84
532 212
678 753
429 52
732 493
825 443
147 335
833 395
541 530
845 162
